============================[ Problem Statistics ]=============================|                                                                             ||  Number of variables:          4242                                         ||  Number of clauses:            9658                                         ||  Parse time:                   0.06 s                                       ||                                                                             |============================[ Search Statistics ]==============================| Conflicts |          ORIGINAL         |          LEARNT          | Progress ||           |    Vars  Clauses Literals |    Limit  Clauses Lit/Cl |          |==============================================================================================================================================================restarts              : 1conflicts             : 40             (465 /sec)decisions             : 123            (0.00 % random) (1430 /sec)propagations          : 8096           (94140 /sec)conflict literals     : 1550           (95.77 % deleted)CPU time              : 0.086 sSATISFIABLE